NAME: st70-24-3
TYPE: TSP
COMMENT: min_cost = 408.57
DIMENSION: 24
EDGE_WEIGHT_TYPE: EUC_2D
NODE_COORD_SECTION
1 57 91
2 68 40
3 79 70
4 95 57
5 62 1
6 64 96
7 52 18
8 64 8
9 7 76
10 81 34
11 5 67
12 44 33
13 81 76
14 42 67
15 74 67
16 41 76
17 27 43
18 17 82
19 77 13
20 40 35
21 55 3
22 6 8
23 82 88
24 67 88
EOF
